************************************************************************
file with basedata            : j901_.bas
initial value random generator: 1495382210
************************************************************************
projects                      :  1
jobs (incl. supersource/sink ):  92
horizon                       :  493
RESOURCES
  - renewable                 :  4   R
  - nonrenewable              :  0   N
  - doubly constrained        :  0   D
************************************************************************
PROJECT INFORMATION:
pronr.  #jobs rel.date duedate tardcost  MPM-Time
    1     90      0       76       53       76
************************************************************************
PRECEDENCE RELATIONS:
jobnr.    #modes  #successors   successors
   1        1          3           2   3   4
   2        1          2           6  23
   3        1          3           5   7  15
   4        1          3           8  11  20
   5        1          3           6   9  12
   6        1          1          73
   7        1          3          10  16  19
   8        1          1          73
   9        1          1          53
  10        1          3          13  14  18
  11        1          3          22  46  48
  12        1          1          29
  13        1          2          21  41
  14        1          3          41  43  49
  15        1          2          54  69
  16        1          3          17  25  87
  17        1          2          37  57
  18        1          1          23
  19        1          1          27
  20        1          2          24  47
  21        1          3          26  33  71
  22        1          2          30  39
  23        1          2          44  62
  24        1          1          28
  25        1          3          31  42  66
  26        1          2          35  51
  27        1          1          36
  28        1          3          32  67  75
  29        1          1          76
  30        1          3          34  55  60
  31        1          2          50  52
  32        1          1          45
  33        1          1          84
  34        1          1          59
  35        1          3          38  65  72
  36        1          1          81
  37        1          1          40
  38        1          1          89
  39        1          1          58
  40        1          1          67
  41        1          1          64
  42        1          1          90
  43        1          2          74  76
  44        1          1          88
  45        1          1          90
  46        1          1          68
  47        1          1          61
  48        1          1          69
  49        1          1          79
  50        1          2          65  73
  51        1          2          56  70
  52        1          2          56  58
  53        1          2          64  76
  54        1          2          64  74
  55        1          3          56  69  80
  56        1          1          85
  57        1          1          84
  58        1          1          80
  59        1          1          63
  60        1          1          77
  61        1          1          65
  62        1          1          77
  63        1          1          87
  64        1          1          82
  65        1          1          88
  66        1          1          79
  67        1          1          83
  68        1          1          82
  69        1          1          81
  70        1          1          80
  71        1          1          89
  72        1          1          87
  73        1          1          84
  74        1          1          79
  75        1          1          86
  76        1          2          78  83
  77        1          1          78
  78        1          1          82
  79        1          1          85
  80        1          1          81
  81        1          2          83  91
  82        1          1          89
  83        1          1          90
  84        1          1          85
  85        1          1          86
  86        1          1          88
  87        1          1          91
  88        1          1          91
  89        1          1          92
  90        1          1          92
  91        1          1          92
  92        1          0        
************************************************************************
REQUESTS/DURATIONS:
jobnr. mode duration  R 1  R 2  R 3  R 4
------------------------------------------------------------------------
  1      1     0       0    0    0    0
  2      1     7       0    0    0   10
  3      1     5       0    1    0    0
  4      1     4       0    0    1    0
  5      1     1       0   10    0    0
  6      1     8       4    0    0    0
  7      1     8       0    0    0    6
  8      1     9       0    1    0    0
  9      1     4       0    3    0    0
 10      1     8       0    8    0    0
 11      1    10       0    2    0    0
 12      1     1       7    0    0    0
 13      1     8       0    0    3    0
 14      1     1       0    7    0    0
 15      1     5       0   10    0    0
 16      1     5       0    0    9    0
 17      1     2       0    0    1    0
 18      1     9       6    0    0    0
 19      1     5       0    0    0    1
 20      1     5       0    6    0    0
 21      1     3       0    0   10    0
 22      1     2       0    5    0    0
 23      1     3       9    0    0    0
 24      1     6       4    0    0    0
 25      1     4       0    9    0    0
 26      1     4       0    0    0    6
 27      1     7       1    0    0    0
 28      1    10       0    0    5    0
 29      1     4       0    0    0    7
 30      1     7       5    0    0    0
 31      1     9       7    0    0    0
 32      1     9       0    0    2    0
 33      1     1       4    0    0    0
 34      1     3       0   10    0    0
 35      1    10       0    0    0    4
 36      1     2       0    0    1    0
 37      1     3       0   10    0    0
 38      1     3       0    0    0    3
 39      1     5       5    0    0    0
 40      1     8       0    8    0    0
 41      1     6       0    3    0    0
 42      1     4       0    5    0    0
 43      1     6       0    0    0    3
 44      1     8       0    0    0    6
 45      1     2       0    0    0    8
 46      1    10       0    0    0    4
 47      1     8       0    0    7    0
 48      1     3       0    0    1    0
 49      1     7       6    0    0    0
 50      1     1       0    0    1    0
 51      1     4       0    0    0    5
 52      1     3       0    0   10    0
 53      1     1       0    0    1    0
 54      1     1       0   10    0    0
 55      1     5       6    0    0    0
 56      1     7       3    0    0    0
 57      1     5       0    8    0    0
 58      1     2      10    0    0    0
 59      1     3       0    2    0    0
 60      1     7       0    0   10    0
 61      1     5       0    7    0    0
 62      1     5       0    8    0    0
 63      1    10       0    0    4    0
 64      1     9       0    9    0    0
 65      1    10       0    0    6    0
 66      1     6       0    5    0    0
 67      1     6       0    0    4    0
 68      1     4       5    0    0    0
 69      1     4       0    0    0    7
 70      1     5       0    9    0    0
 71      1     7       0    1    0    0
 72      1     6       7    0    0    0
 73      1     4       2    0    0    0
 74      1     7       0    0    0    6
 75      1     3       0    9    0    0
 76      1     9       0    9    0    0
 77      1     3       0   10    0    0
 78      1     4       8    0    0    0
 79      1     6       5    0    0    0
 80      1     7       0    0    0    1
 81      1     7       0    0    0    5
 82      1     9       0    0    0    8
 83      1     9       0    5    0    0
 84      1     6       1    0    0    0
 85      1     2       8    0    0    0
 86      1     4       0    6    0    0
 87      1     8       9    0    0    0
 88      1     8       0   10    0    0
 89      1     7       0    0    0    2
 90      1     8       0    4    0    0
 91      1     4       0    0    6    0
 92      1     0       0    0    0    0
************************************************************************
RESOURCEAVAILABILITIES:
  R 1  R 2  R 3  R 4
   14   16   14   13
************************************************************************
